4 -1 9 3 -1 
8 10 10 10 -1 
-1 -1 0 8 -1 
1 7 0 1 -1 
0 3 -1 7 -1 
0 4 -1 4 -1 
5 0 -1 0 -1 
3 -1 -1 8 -1 
7 10 5 -1 -1 
5 10 -1 2 -1 
8 2 -1 7 -1 
0 9 9 0 -1 
-1 4 0 6 -1 
-1 -1 7 6 -1 
-1 4 7 8 -1 
-1 3 6 -1 -1 
10 -1 8 2 -1 
-1 3 3 5 -1 
5 -1 9 0 -1 
3 4 6 6 -1 
